problems/VanDerWaerdenNumbers/VanDerWaerden-models/noch/O2/lingeling/model_3-k3l4n38-solution000001.solution
language Essence 1.3

letting p be
        partition({1, 11, 15, 19, 22, 24, 27, 28, 31, 32, 33, 38}, {2, 6, 7, 9, 12, 13, 14, 18, 20, 23, 29, 30, 35, 36},
                  {3, 4, 5, 8, 10, 16, 17, 21, 25, 26, 34, 37})
